resources = [2,3,3,3,3,2];
horizon = 15;
norders = 16;
dist = [100,30,20,15,20,35,25,150,100,30,20,15,20,35,25,150];
weight = [HEAVY,LIGHT,LIGHT,ULTRA,MEDIUM,LIGHT,HEAVY,HEAVY,HEAVY,LIGHT,LIGHT,ULTRA,MEDIUM,LIGHT,HEAVY,HEAVY];
packtime = [1,2,3,5];
available = [0,0,3,5,7,5,0,2,0,0,3,5,7,5,0,2];
value = [2,5,3,5,10,8,12,14,2,5,3,5,10,8,12,14];
ndrones = 10;
arrival = [0,3,5,6,0,3,5,6,0,0];
charge  = [5,3,2,1,5,3,2,1,10,10];
